ilp_joint/output/respiration_ilp.lp
Maximize
  0.108310517180519 Z_436_7_0 + 0.0678709983194534 Z_436_7_1
   + 0.0721276238293451 Z_436_7_2 + 0.0271582981917274 Z_436_7_3
   + 0.6245325624789552 Z_436_7_4 + 0.00653225332209414 Z_436_2_0
   + 0.0115861281392489 Z_436_2_1 + 0.0113447007510596 Z_436_2_2
   + 0.0243592398508219 Z_436_2_3 + 0.8461776779367756 Z_436_2_4
   + 5.1318824461482322e-04 Z_436_4_0 + 0.00210573868309464 Z_436_4_1
   + 0.3719722283706117 Z_436_4_2 + 0.00104475623502435 Z_436_4_3
   + 0.5243640884666546 Z_436_4_4 + 0.3919514044042489 Z_436_5_0
   + 0.0042560219461268 Z_436_5_1 + 0.00585702409867244 Z_436_5_2
   + 0.00211561318512756 Z_436_5_3 + 0.4958199363658244 Z_436_5_4
   + 0.108310517180519 Z_436_1_0 + 0.0678709983194534 Z_436_1_1
   + 0.0721276238293451 Z_436_1_2 + 0.0271582981917274 Z_436_1_3
   + 0.6245325624789552 Z_436_1_4 + 0.0326260479415778 Z_436_6_0
   + 0.1203992002573449 Z_436_6_1 + 0.00292152885671292 Z_436_6_2
   + 0.094030634476631 Z_436_6_3 + 0.6500225884677334 Z_436_6_4
   + 3.0106948834303468e-04 Z_436_0_0 + 0.00198252013740961 Z_436_0_1
   + 0.47486717676881 Z_436_0_2 + 0.000698573 Z_436_0_3
   + 0.4221506605975401 Z_436_0_4 + 3.3953343081093786e-04 Z_55_0_0
   + 0.00138796470114435 Z_55_0_1 + 0.6419538461954367 Z_55_0_2
   + 0.000431446 Z_55_0_3 + 0.2558872095998955 Z_55_0_4
   + 1.9969966410140799e-04 Z_599_0_0 + 0.00218805542129344 Z_599_0_1
   + 0.4198585385135586 Z_599_0_2 + 0.00177165726313006 Z_599_0_3
   + 0.4759820491379165 Z_599_0_4 + 9.0841110766118447e-04 Z_616_0_0
   + 5.4197516256352524e-04 Z_616_0_1 + 0.6689801521455784 Z_616_0_2
   + 0.00132373869464473 Z_616_0_3 + 0.2282457228895522 Z_616_0_4
   + 0.000136886 Z_589_0_0 + 0.00126548090305003 Z_589_0_1
   + 0.6303318392872167 Z_589_0_2 + 3.9428788122883047e-04 Z_589_0_3
   + 0.2678715059890053 Z_589_0_4 + 9.2470673834299869e-04 Z_203_0_0
   + 0.00193319558722436 Z_203_0_1 + 0.8588591554913714 Z_203_0_2
   + 0.00348383111586807 Z_203_0_3 + 0.034799111067193 Z_203_0_4
Subject To
 constraint1_4367: Z_436_7_0 + Z_436_7_1 + Z_436_7_2 + Z_436_7_3
   + Z_436_7_4 <= 1
 constraint1_4362: Z_436_2_0 + Z_436_2_1 + Z_436_2_2 + Z_436_2_3
   + Z_436_2_4 <= 1
 constraint1_4364: Z_436_4_0 + Z_436_4_1 + Z_436_4_2 + Z_436_4_3
   + Z_436_4_4 <= 1
 constraint1_4365: Z_436_5_0 + Z_436_5_1 + Z_436_5_2 + Z_436_5_3
   + Z_436_5_4 <= 1
 constraint1_4361: Z_436_1_0 + Z_436_1_1 + Z_436_1_2 + Z_436_1_3
   + Z_436_1_4 <= 1
 constraint1_4366: Z_436_6_0 + Z_436_6_1 + Z_436_6_2 + Z_436_6_3
   + Z_436_6_4 <= 1
 constraint1_4360: Z_436_0_0 + Z_436_0_1 + Z_436_0_2 + Z_436_0_3
   + Z_436_0_4 <= 1
 constraint1_550: Z_55_0_0 + Z_55_0_1 + Z_55_0_2 + Z_55_0_3 + Z_55_0_4
   <= 1
 constraint1_5990: Z_599_0_0 + Z_599_0_1 + Z_599_0_2 + Z_599_0_3
   + Z_599_0_4 <= 1
 constraint1_6160: Z_616_0_0 + Z_616_0_1 + Z_616_0_2 + Z_616_0_3
   + Z_616_0_4 <= 1
 constraint1_5890: Z_589_0_0 + Z_589_0_1 + Z_589_0_2 + Z_589_0_3
   + Z_589_0_4 <= 1
 constraint1_2030: Z_203_0_0 + Z_203_0_1 + Z_203_0_2 + Z_203_0_3
   + Z_203_0_4 <= 1
 constraint2_4360: Z_436_7_0 + Z_436_2_0 + Z_436_4_0 + Z_436_5_0
   + Z_436_1_0 + Z_436_6_0 + Z_436_0_0 <= 1
 constraint2_4361: Z_436_7_1 + Z_436_2_1 + Z_436_4_1 + Z_436_5_1
   + Z_436_1_1 + Z_436_6_1 + Z_436_0_1 <= 1
 constraint2_4362: Z_436_7_2 + Z_436_2_2 + Z_436_4_2 + Z_436_5_2
   + Z_436_1_2 + Z_436_6_2 + Z_436_0_2 <= 1
 constraint2_4363: Z_436_7_3 + Z_436_2_3 + Z_436_4_3 + Z_436_5_3
   + Z_436_1_3 + Z_436_6_3 + Z_436_0_3 <= 1
 constraint2_550: Z_55_0_0 <= 1
 constraint2_551: Z_55_0_1 <= 1
 constraint2_552: Z_55_0_2 <= 1
 constraint2_553: Z_55_0_3 <= 1
 constraint2_5990: Z_599_0_0 <= 1
 constraint2_5991: Z_599_0_1 <= 1
 constraint2_5992: Z_599_0_2 <= 1
 constraint2_5993: Z_599_0_3 <= 1
 constraint2_6160: Z_616_0_0 <= 1
 constraint2_6161: Z_616_0_1 <= 1
 constraint2_6162: Z_616_0_2 <= 1
 constraint2_6163: Z_616_0_3 <= 1
 constraint2_5890: Z_589_0_0 <= 1
 constraint2_5891: Z_589_0_1 <= 1
 constraint2_5892: Z_589_0_2 <= 1
 constraint2_5893: Z_589_0_3 <= 1
 constraint2_2030: Z_203_0_0 <= 1
 constraint2_2031: Z_203_0_1 <= 1
 constraint2_2032: Z_203_0_2 <= 1
 constraint2_2033: Z_203_0_3 <= 1
 constraint2_1970: <= 1
 constraint2_1971: <= 1
 constraint2_1972: <= 1
 constraint2_1973: <= 1
Bounds
Binaries
 Z_436_7_0 Z_436_7_1 Z_436_7_2 Z_436_7_3 Z_436_7_4 Z_436_2_0 Z_436_2_1
 Z_436_2_2 Z_436_2_3 Z_436_2_4 Z_436_4_0 Z_436_4_1 Z_436_4_2 Z_436_4_3
 Z_436_4_4 Z_436_5_0 Z_436_5_1 Z_436_5_2 Z_436_5_3 Z_436_5_4 Z_436_1_0
 Z_436_1_1 Z_436_1_2 Z_436_1_3 Z_436_1_4 Z_436_6_0 Z_436_6_1 Z_436_6_2
 Z_436_6_3 Z_436_6_4 Z_436_0_0 Z_436_0_1 Z_436_0_2 Z_436_0_3 Z_436_0_4
 Z_55_0_0 Z_55_0_1 Z_55_0_2 Z_55_0_3 Z_55_0_4 Z_599_0_0 Z_599_0_1 Z_599_0_2
 Z_599_0_3 Z_599_0_4 Z_616_0_0 Z_616_0_1 Z_616_0_2 Z_616_0_3 Z_616_0_4
 Z_589_0_0 Z_589_0_1 Z_589_0_2 Z_589_0_3 Z_589_0_4 Z_203_0_0 Z_203_0_1
 Z_203_0_2 Z_203_0_3 Z_203_0_4
End
