ilp_joint/output/respiration_ilp.mps
NAME respiration_srl_ilp
* Max problem is converted into Min one
ROWS
 N  OBJ
 L  constraint1_1307
 L  constraint1_1302
 L  constraint1_1304
 L  constraint1_1305
 L  constraint1_1301
 L  constraint1_1306
 L  constraint1_1300
 L  constraint1_1110
 L  constraint1_3970
 L  constraint2_1300
 L  constraint2_1301
 L  constraint2_1302
 L  constraint2_1303
 L  constraint2_1110
 L  constraint2_1111
 L  constraint2_1112
 L  constraint2_1113
 L  constraint2_3970
 L  constraint2_3971
 L  constraint2_3972
 L  constraint2_3973
COLUMNS
    MARKER    'MARKER'                 'INTORG'
    Z_130_7_0  OBJ       -6.4926517160299194e-02
    Z_130_7_0  constraint1_1307  1
    Z_130_7_0  constraint2_1300  1
    Z_130_7_1  OBJ       -5.1467496815911742e-02
    Z_130_7_1  constraint1_1307  1
    Z_130_7_1  constraint2_1301  1
    Z_130_7_2  OBJ       -2.2846931658830179e-02
    Z_130_7_2  constraint1_1307  1
    Z_130_7_2  constraint2_1302  1
    Z_130_7_3  OBJ       -3.0974423498964065e-02
    Z_130_7_3  constraint1_1307  1
    Z_130_7_3  constraint2_1303  1
    Z_130_7_4  OBJ       -7.2978463086599499e-01
    Z_130_7_4  constraint1_1307  1
    Z_130_2_0  OBJ       -4.4306718659817678e-03
    Z_130_2_0  constraint1_1302  1
    Z_130_2_0  constraint2_1300  1
    Z_130_2_1  OBJ       -2.0146020832075142e-02
    Z_130_2_1  constraint1_1302  1
    Z_130_2_1  constraint2_1301  1
    Z_130_2_2  OBJ       -1.1045325706298485e-02
    Z_130_2_2  constraint1_1302  1
    Z_130_2_2  constraint2_1302  1
    Z_130_2_3  OBJ       -1.2206995032679999e-02
    Z_130_2_3  constraint1_1302  1
    Z_130_2_3  constraint2_1303  1
    Z_130_2_4  OBJ       -8.5217098656296453e-01
    Z_130_2_4  constraint1_1302  1
    Z_130_4_0  OBJ       -5.9681128236282045e-04
    Z_130_4_0  constraint1_1304  1
    Z_130_4_0  constraint2_1300  1
    Z_130_4_1  OBJ       -2.2003867518132314e-03
    Z_130_4_1  constraint1_1304  1
    Z_130_4_1  constraint2_1301  1
    Z_130_4_2  OBJ       -4.7763005692603167e-01
    Z_130_4_2  constraint1_1304  1
    Z_130_4_2  constraint2_1302  1
    Z_130_4_3  OBJ       -9.5605477563361877e-04
    Z_130_4_3  constraint1_1304  1
    Z_130_4_3  constraint2_1303  1
    Z_130_4_4  OBJ       -4.1861669026415854e-01
    Z_130_4_4  constraint1_1304  1
    Z_130_5_0  OBJ       -8.0343366104719005e-01
    Z_130_5_0  constraint1_1305  1
    Z_130_5_0  constraint2_1300  1
    Z_130_5_1  OBJ       -1.5879002642322216e-02
    Z_130_5_1  constraint1_1305  1
    Z_130_5_1  constraint2_1301  1
    Z_130_5_2  OBJ       -8.2232565087149278e-03
    Z_130_5_2  constraint1_1305  1
    Z_130_5_2  constraint2_1302  1
    Z_130_5_3  OBJ       -8.3153083847573653e-03
    Z_130_5_3  constraint1_1305  1
    Z_130_5_3  constraint2_1303  1
    Z_130_5_4  OBJ       -6.4148771417015485e-02
    Z_130_5_4  constraint1_1305  1
    Z_130_1_0  OBJ       -6.4926517160299194e-02
    Z_130_1_0  constraint1_1301  1
    Z_130_1_0  constraint2_1300  1
    Z_130_1_1  OBJ       -5.1467496815911742e-02
    Z_130_1_1  constraint1_1301  1
    Z_130_1_1  constraint2_1301  1
    Z_130_1_2  OBJ       -2.2846931658830179e-02
    Z_130_1_2  constraint1_1301  1
    Z_130_1_2  constraint2_1302  1
    Z_130_1_3  OBJ       -3.0974423498964065e-02
    Z_130_1_3  constraint1_1301  1
    Z_130_1_3  constraint2_1303  1
    Z_130_1_4  OBJ       -7.2978463086599499e-01
    Z_130_1_4  constraint1_1301  1
    Z_130_6_0  OBJ       -2.3194549986104238e-02
    Z_130_6_0  constraint1_1306  1
    Z_130_6_0  constraint2_1300  1
    Z_130_6_1  OBJ       -1.2837108556418469e-01
    Z_130_6_1  constraint1_1306  1
    Z_130_6_1  constraint2_1301  1
    Z_130_6_2  OBJ       -3.2925452024784047e-03
    Z_130_6_2  constraint1_1306  1
    Z_130_6_2  constraint2_1302  1
    Z_130_6_3  OBJ       -3.8866426944813300e-02
    Z_130_6_3  constraint1_1306  1
    Z_130_6_3  constraint2_1303  1
    Z_130_6_4  OBJ       -7.0627539230241931e-01
    Z_130_6_4  constraint1_1306  1
    Z_130_0_0  OBJ       -4.9417182455485718e-04
    Z_130_0_0  constraint1_1300  1
    Z_130_0_0  constraint2_1300  1
    Z_130_0_1  OBJ       -2.6908907261520448e-03
    Z_130_0_1  constraint1_1300  1
    Z_130_0_1  constraint2_1301  1
    Z_130_0_2  OBJ       -7.8946093953326091e-01
    Z_130_0_2  constraint1_1300  1
    Z_130_0_2  constraint2_1302  1
    Z_130_0_3  OBJ       -1.3051445709842857e-03
    Z_130_0_3  constraint1_1300  1
    Z_130_0_3  constraint2_1303  1
    Z_130_0_4  OBJ       -1.0604885334504791e-01
    Z_130_0_4  constraint1_1300  1
    Z_111_0_0  OBJ       -3.3156301237190547e-04
    Z_111_0_0  constraint1_1110  1
    Z_111_0_0  constraint2_1110  1
    Z_111_0_1  OBJ       -2.2649287734305009e-03
    Z_111_0_1  constraint1_1110  1
    Z_111_0_1  constraint2_1111  1
    Z_111_0_2  OBJ       -6.6824015537436088e-01
    Z_111_0_2  constraint1_1110  1
    Z_111_0_2  constraint2_1112  1
    Z_111_0_3  OBJ       -5.6979615271539298e-04
    Z_111_0_3  constraint1_1110  1
    Z_111_0_3  constraint2_1113  1
    Z_111_0_4  OBJ       -2.2859355668712122e-01
    Z_111_0_4  constraint1_1110  1
    Z_397_0_0  OBJ       -2.3470905582843342e-03
    Z_397_0_0  constraint1_3970  1
    Z_397_0_0  constraint2_3970  1
    Z_397_0_1  OBJ       -1.7624038842054075e-03
    Z_397_0_1  constraint1_3970  1
    Z_397_0_1  constraint2_3971  1
    Z_397_0_2  OBJ       -8.7563477000807621e-01
    Z_397_0_2  constraint1_3970  1
    Z_397_0_2  constraint2_3972  1
    Z_397_0_3  OBJ       -9.5583020002592608e-03
    Z_397_0_3  constraint1_3970  1
    Z_397_0_3  constraint2_3973  1
    Z_397_0_4  OBJ       -1.0697433549174821e-02
    Z_397_0_4  constraint1_3970  1
    MARKER    'MARKER'                 'INTEND'
RHS
    RHS1      constraint1_1307  1
    RHS1      constraint1_1302  1
    RHS1      constraint1_1304  1
    RHS1      constraint1_1305  1
    RHS1      constraint1_1301  1
    RHS1      constraint1_1306  1
    RHS1      constraint1_1300  1
    RHS1      constraint1_1110  1
    RHS1      constraint1_3970  1
    RHS1      constraint2_1300  1
    RHS1      constraint2_1301  1
    RHS1      constraint2_1302  1
    RHS1      constraint2_1303  1
    RHS1      constraint2_1110  1
    RHS1      constraint2_1111  1
    RHS1      constraint2_1112  1
    RHS1      constraint2_1113  1
    RHS1      constraint2_3970  1
    RHS1      constraint2_3971  1
    RHS1      constraint2_3972  1
    RHS1      constraint2_3973  1
BOUNDS
 UP BND1      Z_130_7_0  1
 UP BND1      Z_130_7_1  1
 UP BND1      Z_130_7_2  1
 UP BND1      Z_130_7_3  1
 UP BND1      Z_130_7_4  1
 UP BND1      Z_130_2_0  1
 UP BND1      Z_130_2_1  1
 UP BND1      Z_130_2_2  1
 UP BND1      Z_130_2_3  1
 UP BND1      Z_130_2_4  1
 UP BND1      Z_130_4_0  1
 UP BND1      Z_130_4_1  1
 UP BND1      Z_130_4_2  1
 UP BND1      Z_130_4_3  1
 UP BND1      Z_130_4_4  1
 UP BND1      Z_130_5_0  1
 UP BND1      Z_130_5_1  1
 UP BND1      Z_130_5_2  1
 UP BND1      Z_130_5_3  1
 UP BND1      Z_130_5_4  1
 UP BND1      Z_130_1_0  1
 UP BND1      Z_130_1_1  1
 UP BND1      Z_130_1_2  1
 UP BND1      Z_130_1_3  1
 UP BND1      Z_130_1_4  1
 UP BND1      Z_130_6_0  1
 UP BND1      Z_130_6_1  1
 UP BND1      Z_130_6_2  1
 UP BND1      Z_130_6_3  1
 UP BND1      Z_130_6_4  1
 UP BND1      Z_130_0_0  1
 UP BND1      Z_130_0_1  1
 UP BND1      Z_130_0_2  1
 UP BND1      Z_130_0_3  1
 UP BND1      Z_130_0_4  1
 UP BND1      Z_111_0_0  1
 UP BND1      Z_111_0_1  1
 UP BND1      Z_111_0_2  1
 UP BND1      Z_111_0_3  1
 UP BND1      Z_111_0_4  1
 UP BND1      Z_397_0_0  1
 UP BND1      Z_397_0_1  1
 UP BND1      Z_397_0_2  1
 UP BND1      Z_397_0_3  1
 UP BND1      Z_397_0_4  1
QUADOBJ
    Z_130_4_0  Z_397_0_0  -6.3848326422690936e-04
    Z_130_4_1  Z_397_0_1  -6.3848326422690936e-04
    Z_130_4_2  Z_397_0_2  -6.3848326422690936e-04
    Z_130_4_3  Z_397_0_3  -6.3848326422690936e-04
    Z_130_4_4  Z_397_0_4  -6.3848326422690936e-04
    Z_130_0_0  Z_111_0_0  -1.6326530612244893e-04
    Z_130_0_0  Z_397_0_0  -1.1487691044208077e-03
    Z_130_0_1  Z_111_0_1  -1.6326530612244893e-04
    Z_130_0_1  Z_397_0_1  -1.1487691044208077e-03
    Z_130_0_2  Z_111_0_2  -1.6326530612244893e-04
    Z_130_0_2  Z_397_0_2  -1.1487691044208077e-03
    Z_130_0_3  Z_111_0_3  -1.6326530612244893e-04
    Z_130_0_3  Z_397_0_3  -1.1487691044208077e-03
    Z_130_0_4  Z_111_0_4  -1.6326530612244893e-04
    Z_130_0_4  Z_397_0_4  -1.1487691044208077e-03
ENDATA
